p tw 169 200
1 2
2 82
3 14
4 5
5 6
6 7
6 8
7 77
8 9
9 10
10 11
10 23
11 12
12 13
12 19
13 15
14 25
14 79
15 16
15 34
16 17
17 18
17 34
18 32
19 20
20 21
21 22
22 34
23 24
24 26
25 36
26 27
27 28
28 29
28 32
29 30
30 31
31 34
32 33
33 34
34 35
35 37
36 47
37 38
38 39
38 40
39 40
40 41
41 42
42 141
43 44
44 45
45 46
45 62
46 48
46 62
47 58
48 49
48 62
49 50
50 51
51 52
52 53
53 54
54 55
55 56
56 57
57 59
58 69
59 60
60 61
60 62
61 77
62 63
63 64
63 65
64 77
65 66
66 67
66 70
67 68
68 77
69 159
70 71
71 72
71 74
72 73
73 77
74 75
75 76
76 77
77 78
79 80
80 81
81 83
82 93
83 84
84 85
84 90
85 86
86 87
87 88
88 89
88 90
89 90
90 91
91 92
92 94
93 104
94 95
95 96
96 97
97 98
97 99
98 99
98 119
99 100
100 101
101 102
102 103
103 105
104 115
105 106
106 107
107 108
108 109
109 110
110 111
111 112
111 113
112 113
112 116
113 114
114 77
115 126
116 117
117 118
118 119
119 120
120 121
120 124
121 122
122 123
123 124
123 131
124 125
125 127
125 43
126 137
127 128
127 43
128 129
129 130
130 131
130 43
131 132
132 133
133 134
134 135
135 136
136 138
137 148
138 139
139 140
140 141
141 142
142 143
143 144
143 43
144 145
144 43
145 146
146 147
146 153
147 149
148 159
149 150
149 156
150 151
151 152
152 153
152 156
153 154
154 155
155 156
156 157
157 158
158 160
159 3
160 161
161 162
162 163
163 164
164 165
165 166
166 167
167 168
168 169
168 4
169 77
